(set-logic QF_S)
(declare-fun _var_0xINPUT_137873_() String)
(declare-fun __woorpje_diseq_pref0_() String)
(declare-fun __woorpje_diseq_suf_l0_() String)
(declare-fun __woorpje_diseq_suf_r0_() String)
(assert (=(str.++ _var_0xINPUT_137873_  "")(str.++ __woorpje_diseq_pref0_  "s" __woorpje_diseq_suf_l0_  "")) )
(assert (=(str.++  "DbwRgsPA92" "")(str.++ __woorpje_diseq_pref0_  "2" __woorpje_diseq_suf_r0_  "")) )
(check-sat)
